NAME: tsp20-35
TYPE: TSP
DIMENSION: 20
EDGE_WEIGHT_TYPE: EUC_2D
NODE_COORD_SECTION
0 40 26
1 87 54
2 49 97
3 17 8
4 60 99
5 63 76
6 44 37
7 48 75
8 56 32
9 54 82
10 25 69
11 2 100
12 55 91
13 5 9
14 49 96
15 18 56
16 20 14
17 63 0
18 28 96
19 55 87
EOF